p cnf 182 701
c p weight -7 1 0
c p weight 7 -1 0
c p weight 11 6.12323399573676603586882014729198302312846062338790031898128063403419218957424163818359375E-17 0
c p weight -11 1 0
c p weight 12 1 0
c p weight -12 1 0
c p weight -9 1 0
c p weight 9 -1 0
c p weight -13 1 0
c p weight 13 -1 0
c p weight 17 1 0
c p weight -17 1 0
c p weight 18 0 0
c p weight -18 1 0
c p weight -15 1 0
c p weight 15 -1 0
c p weight -19 1 0
c p weight 19 -1 0
c p weight 23 6.12323399573676603586882014729198302312846062338790031898128063403419218957424163818359375E-17 0
c p weight -23 1 0
c p weight 24 1 0
c p weight -24 1 0
c p weight -21 1 0
c p weight 21 -1 0
c p weight -25 1 0
c p weight 25 -1 0
c p weight 29 1 0
c p weight -29 1 0
c p weight 30 0 0
c p weight -30 1 0
c p weight -27 1 0
c p weight 27 -1 0
c p weight 33 1 0
c p weight -33 1 0
c p weight 34 0 0
c p weight -34 1 0
c p weight -31 1 0
c p weight 31 -1 0
c p weight 37 6.12323399573676603586882014729198302312846062338790031898128063403419218957424163818359375E-17 0
c p weight -37 1 0
c p weight 38 1 0
c p weight -38 1 0
c p weight -35 1 0
c p weight 35 -1 0
c p weight 41 -0.600000000000000088817841970012523233890533447265625 0
c p weight -41 1 0
c p weight 42 -0.79999999999999993338661852249060757458209991455078125 0
c p weight -42 1 0
c p weight -39 1 0
c p weight 39 -1 0
c p weight 45 6.12323399573676603586882014729198302312846062338790031898128063403419218957424163818359375E-17 0
c p weight -45 1 0
c p weight 46 1 0
c p weight -46 1 0
c p weight -43 1 0
c p weight 43 -1 0
c p weight 49 -1 0
c p weight -49 1 0
c p weight 50 3.673940397442059375002259206809000622711899723162043418511757408850826323032379150390625E-16 0
c p weight -50 1 0
c p weight -47 1 0
c p weight 47 -1 0
c p weight 53 1 0
c p weight -53 1 0
c p weight 54 0 0
c p weight -54 1 0
c p weight -51 1 0
c p weight 51 -1 0
c p weight -55 1 0
c p weight 55 -1 0
c p weight 60 1 0
c p weight -60 1 0
c p weight 61 0 0
c p weight -61 1 0
c p weight -58 1 0
c p weight 58 -1 0
c p weight 64 6.12323399573676603586882014729198302312846062338790031898128063403419218957424163818359375E-17 0
c p weight -64 1 0
c p weight 65 1 0
c p weight -65 1 0
c p weight -62 1 0
c p weight 62 -1 0
c p weight 68 -0.5999999999999998667732370449812151491641998291015625 0
c p weight -68 1 0
c p weight 69 0.80000000000000015543122344752191565930843353271484375 0
c p weight -69 1 0
c p weight -66 1 0
c p weight 66 -1 0
c p weight 72 6.12323399573676603586882014729198302312846062338790031898128063403419218957424163818359375E-17 0
c p weight -72 1 0
c p weight 73 1 0
c p weight -73 1 0
c p weight -70 1 0
c p weight 70 -1 0
c p weight 76 -1 0
c p weight -76 1 0
c p weight 77 3.673940397442059375002259206809000622711899723162043418511757408850826323032379150390625E-16 0
c p weight -77 1 0
c p weight -74 1 0
c p weight 74 -1 0
c p weight -78 1 0
c p weight 78 -1 0
c p weight 83 0.70710678118654752440084436210485 0
c p weight -83 1 0
c p weight -81 1 0
c p weight 81 -1 0
c p weight 86 1 0
c p weight -86 1 0
c p weight 87 0 0
c p weight -87 1 0
c p weight -84 1 0
c p weight 84 -1 0
c p weight 90 6.12323399573676603586882014729198302312846062338790031898128063403419218957424163818359375E-17 0
c p weight -90 1 0
c p weight 91 1 0
c p weight -91 1 0
c p weight -88 1 0
c p weight 88 -1 0
c p weight 94 -0.600000000000000088817841970012523233890533447265625 0
c p weight -94 1 0
c p weight 95 -0.79999999999999993338661852249060757458209991455078125 0
c p weight -95 1 0
c p weight -92 1 0
c p weight 92 -1 0
c p weight 98 6.12323399573676603586882014729198302312846062338790031898128063403419218957424163818359375E-17 0
c p weight -98 1 0
c p weight 99 1 0
c p weight -99 1 0
c p weight -96 1 0
c p weight 96 -1 0
c p weight 102 -1 0
c p weight -102 1 0
c p weight 103 3.673940397442059375002259206809000622711899723162043418511757408850826323032379150390625E-16 0
c p weight -103 1 0
c p weight -100 1 0
c p weight 100 -1 0
c p weight 106 1 0
c p weight -106 1 0
c p weight 107 0 0
c p weight -107 1 0
c p weight -104 1 0
c p weight 104 -1 0
c p weight -108 1 0
c p weight 108 -1 0
c p weight 113 1 0
c p weight -113 1 0
c p weight 114 0 0
c p weight -114 1 0
c p weight -111 1 0
c p weight 111 -1 0
c p weight 117 6.12323399573676603586882014729198302312846062338790031898128063403419218957424163818359375E-17 0
c p weight -117 1 0
c p weight 118 1 0
c p weight -118 1 0
c p weight -115 1 0
c p weight 115 -1 0
c p weight 121 0.2800000000000000266453525910037569701671600341796875 0
c p weight -121 1 0
c p weight 122 0.95999999999999996447286321199499070644378662109375 0
c p weight -122 1 0
c p weight -119 1 0
c p weight 119 -1 0
c p weight 125 6.12323399573676603586882014729198302312846062338790031898128063403419218957424163818359375E-17 0
c p weight -125 1 0
c p weight 126 1 0
c p weight -126 1 0
c p weight -123 1 0
c p weight 123 -1 0
c p weight 129 -1 0
c p weight -129 1 0
c p weight 130 3.673940397442059375002259206809000622711899723162043418511757408850826323032379150390625E-16 0
c p weight -130 1 0
c p weight -127 1 0
c p weight 127 -1 0
c p weight -131 1 0
c p weight 131 -1 0
c p weight -134 1 0
c p weight 134 -1 0
c p weight 138 6.12323399573676603586882014729198302312846062338790031898128063403419218957424163818359375E-17 0
c p weight -138 1 0
c p weight 139 1 0
c p weight -139 1 0
c p weight -136 1 0
c p weight 136 -1 0
c p weight -140 1 0
c p weight 140 -1 0
c p weight -142 1 0
c p weight 142 -1 0
c p weight 147 0.70710678118654752440084436210485 0
c p weight -147 1 0
c p weight -145 1 0
c p weight 145 -1 0
c p weight -148 1 0
c p weight 148 -1 0
c p weight -151 1 0
c p weight 151 -1 0
c p weight 155 6.12323399573676603586882014729198302312846062338790031898128063403419218957424163818359375E-17 0
c p weight -155 1 0
c p weight 156 1 0
c p weight -156 1 0
c p weight -153 1 0
c p weight 153 -1 0
c p weight -157 1 0
c p weight 157 -1 0
c p weight 161 0.70710678118654752440084436210485 0
c p weight -161 1 0
c p weight -159 1 0
c p weight 159 -1 0
c p weight 164 1 0
c p weight -164 1 0
c p weight 165 0 0
c p weight -165 1 0
c p weight -162 1 0
c p weight 162 -1 0
c p weight 168 6.12323399573676603586882014729198302312846062338790031898128063403419218957424163818359375E-17 0
c p weight -168 1 0
c p weight 169 1 0
c p weight -169 1 0
c p weight -166 1 0
c p weight 166 -1 0
c p weight 172 0.2800000000000000266453525910037569701671600341796875 0
c p weight -172 1 0
c p weight 173 -0.95999999999999996447286321199499070644378662109375 0
c p weight -173 1 0
c p weight -170 1 0
c p weight 170 -1 0
c p weight 176 6.12323399573676603586882014729198302312846062338790031898128063403419218957424163818359375E-17 0
c p weight -176 1 0
c p weight 177 1 0
c p weight -177 1 0
c p weight -174 1 0
c p weight 174 -1 0
c p weight 180 -1 0
c p weight -180 1 0
c p weight 181 3.673940397442059375002259206809000622711899723162043418511757408850826323032379150390625E-16 0
c p weight -181 1 0
c p weight -178 1 0
c p weight 178 -1 0
c p weight 182 0.5 0
c p weight -182 1 0
182 0
-5 0
-3 0
-1 0
-7 1 0
-7 2 0
7 -1 -2 0
8 1 -2 0
8 -1 2 0
-8 1 2 0
-8 -1 -2 0
-9 10 0
-9 8 0
-9 -1 0
9 -10 1 -8 0
10 -1 8 0
-10 1 8 0
-11 8 0
10 -11 -1 0
-10 -11 1 0
10 11 1 -8 0
-10 11 -1 -8 0
-12 8 0
10 -12 1 0
-10 -12 -1 0
10 12 -1 -8 0
-10 12 1 -8 0
-13 10 0
-13 8 0
13 -10 -8 0
14 10 -8 0
14 -10 8 0
-14 10 8 0
-14 -10 -8 0
-15 10 0
-15 14 0
-15 -16 0
15 16 -10 -14 0
16 10 -14 0
-16 10 14 0
-17 10 0
16 -17 -14 0
-16 -17 14 0
16 17 -10 14 0
-16 17 -10 -14 0
-18 10 0
16 -18 14 0
-16 -18 -14 0
16 18 -10 -14 0
-16 18 -10 14 0
-19 3 0
-19 4 0
19 -3 -4 0
20 3 -4 0
20 -3 4 0
-20 3 4 0
-20 -3 -4 0
-21 22 0
-21 20 0
-21 -3 0
21 -22 3 -20 0
22 -3 20 0
-22 3 20 0
-23 20 0
22 -23 -3 0
-22 -23 3 0
22 23 3 -20 0
-22 23 -3 -20 0
-24 20 0
22 -24 3 0
-22 -24 -3 0
22 24 -3 -20 0
-22 24 3 -20 0
-25 22 0
-25 20 0
25 -22 -20 0
26 22 -20 0
26 -22 20 0
-26 22 20 0
-26 -22 -20 0
-27 22 0
-27 26 0
-27 -28 0
27 28 -22 -26 0
28 22 -26 0
-28 22 26 0
-29 22 0
28 -29 -26 0
-28 -29 26 0
28 29 -22 26 0
-28 29 -22 -26 0
-30 22 0
28 -30 26 0
-28 -30 -26 0
28 30 -22 -26 0
-28 30 -22 26 0
-31 5 0
-31 6 0
-31 -32 0
31 32 -5 -6 0
32 5 -6 0
-32 5 6 0
-33 5 0
32 -33 -6 0
-32 -33 6 0
32 33 -5 6 0
-32 33 -5 -6 0
-34 5 0
32 -34 6 0
-32 -34 -6 0
32 34 -5 -6 0
-32 34 -5 6 0
-35 36 0
-35 32 0
-35 -5 0
35 -36 5 -32 0
36 -5 32 0
-36 5 32 0
-37 32 0
36 -37 -5 0
-36 -37 5 0
36 37 5 -32 0
-36 37 -5 -32 0
-38 32 0
36 -38 5 0
-36 -38 -5 0
36 38 -5 -32 0
-36 38 5 -32 0
-39 36 0
-39 32 0
-39 -40 0
39 40 -36 -32 0
40 36 -32 0
-40 36 32 0
-41 36 0
40 -41 -32 0
-40 -41 32 0
40 41 -36 32 0
-40 41 -36 -32 0
-42 36 0
40 -42 32 0
-40 -42 -32 0
40 42 -36 -32 0
-40 42 -36 32 0
-43 44 0
-43 40 0
-43 -36 0
43 -44 36 -40 0
44 -36 40 0
-44 36 40 0
-45 40 0
44 -45 -36 0
-44 -45 36 0
44 45 36 -40 0
-44 45 -36 -40 0
-46 40 0
44 -46 36 0
-44 -46 -36 0
44 46 -36 -40 0
-44 46 36 -40 0
-47 44 0
-47 40 0
-47 -48 0
47 48 -44 -40 0
48 44 -40 0
-48 44 40 0
-49 44 0
48 -49 -40 0
-48 -49 40 0
48 49 -44 40 0
-48 49 -44 -40 0
-50 44 0
48 -50 40 0
-48 -50 -40 0
48 50 -44 -40 0
-48 50 -44 40 0
-51 44 0
-51 48 0
-51 -52 0
51 52 -44 -48 0
52 44 -48 0
-52 44 48 0
-53 44 0
52 -53 -48 0
-52 -53 48 0
52 53 -44 48 0
-52 53 -44 -48 0
-54 44 0
52 -54 48 0
-52 -54 -48 0
52 54 -44 -48 0
-52 54 -44 48 0
-55 10 0
-55 52 0
-55 44 -16 0
-55 -44 16 0
55 -10 44 16 -52 0
55 -10 -44 -16 -52 0
57 10 -44 0
57 -10 44 0
-57 10 44 0
-57 -10 -44 0
56 16 -52 0
56 -16 52 0
-56 16 52 0
-56 -16 -52 0
-58 57 0
-58 52 0
-58 -59 0
58 59 -57 -52 0
59 57 -52 0
-59 57 52 0
-60 57 0
59 -60 -52 0
-59 -60 52 0
59 60 -57 52 0
-59 60 -57 -52 0
-61 57 0
59 -61 52 0
-59 -61 -52 0
59 61 -57 -52 0
-59 61 -57 52 0
-62 63 0
-62 59 0
-62 -57 0
62 -63 57 -59 0
63 -57 59 0
-63 57 59 0
-64 59 0
63 -64 -57 0
-63 -64 57 0
63 64 57 -59 0
-63 64 -57 -59 0
-65 59 0
63 -65 57 0
-63 -65 -57 0
63 65 -57 -59 0
-63 65 57 -59 0
-66 63 0
-66 59 0
-66 -67 0
66 67 -63 -59 0
67 63 -59 0
-67 63 59 0
-68 63 0
67 -68 -59 0
-67 -68 59 0
67 68 -63 59 0
-67 68 -63 -59 0
-69 63 0
67 -69 59 0
-67 -69 -59 0
67 69 -63 -59 0
-67 69 -63 59 0
-70 71 0
-70 67 0
-70 -63 0
70 -71 63 -67 0
71 -63 67 0
-71 63 67 0
-72 67 0
71 -72 -63 0
-71 -72 63 0
71 72 63 -67 0
-71 72 -63 -67 0
-73 67 0
71 -73 63 0
-71 -73 -63 0
71 73 -63 -67 0
-71 73 63 -67 0
-74 71 0
-74 67 0
-74 -75 0
74 75 -71 -67 0
75 71 -67 0
-75 71 67 0
-76 71 0
75 -76 -67 0
-75 -76 67 0
75 76 -71 67 0
-75 76 -71 -67 0
-77 71 0
75 -77 67 0
-75 -77 -67 0
75 77 -71 -67 0
-75 77 -71 67 0
-78 10 0
-78 75 0
-78 71 -56 0
-78 -71 56 0
78 -10 71 56 -75 0
78 -10 -71 -56 -75 0
80 10 -71 0
80 -10 71 0
-80 10 71 0
-80 -10 -71 0
79 56 -75 0
79 -56 75 0
-79 56 75 0
-79 -56 -75 0
-81 82 0
-81 10 0
-81 -79 0
81 -82 -10 79 0
82 10 -79 0
-82 10 79 0
83 -10 0
-83 10 0
-84 80 0
-84 75 0
-84 -85 0
84 85 -80 -75 0
85 80 -75 0
-85 80 75 0
-86 80 0
85 -86 -75 0
-85 -86 75 0
85 86 -80 75 0
-85 86 -80 -75 0
-87 80 0
85 -87 75 0
-85 -87 -75 0
85 87 -80 -75 0
-85 87 -80 75 0
-88 89 0
-88 85 0
-88 -80 0
88 -89 80 -85 0
89 -80 85 0
-89 80 85 0
-90 85 0
89 -90 -80 0
-89 -90 80 0
89 90 80 -85 0
-89 90 -80 -85 0
-91 85 0
89 -91 80 0
-89 -91 -80 0
89 91 -80 -85 0
-89 91 80 -85 0
-92 89 0
-92 85 0
-92 -93 0
92 93 -89 -85 0
93 89 -85 0
-93 89 85 0
-94 89 0
93 -94 -85 0
-93 -94 85 0
93 94 -89 85 0
-93 94 -89 -85 0
-95 89 0
93 -95 85 0
-93 -95 -85 0
93 95 -89 -85 0
-93 95 -89 85 0
-96 97 0
-96 93 0
-96 -89 0
96 -97 89 -93 0
97 -89 93 0
-97 89 93 0
-98 93 0
97 -98 -89 0
-97 -98 89 0
97 98 89 -93 0
-97 98 -89 -93 0
-99 93 0
97 -99 89 0
-97 -99 -89 0
97 99 -89 -93 0
-97 99 89 -93 0
-100 97 0
-100 93 0
-100 -101 0
100 101 -97 -93 0
101 97 -93 0
-101 97 93 0
-102 97 0
101 -102 -93 0
-101 -102 93 0
101 102 -97 93 0
-101 102 -97 -93 0
-103 97 0
101 -103 93 0
-101 -103 -93 0
101 103 -97 -93 0
-101 103 -97 93 0
-104 97 0
-104 101 0
-104 -105 0
104 105 -97 -101 0
105 97 -101 0
-105 97 101 0
-106 97 0
105 -106 -101 0
-105 -106 101 0
105 106 -97 101 0
-105 106 -97 -101 0
-107 97 0
105 -107 101 0
-105 -107 -101 0
105 107 -97 -101 0
-105 107 -97 101 0
-108 22 0
-108 105 0
-108 97 -28 0
-108 -97 28 0
108 -22 97 28 -105 0
108 -22 -97 -28 -105 0
110 22 -97 0
110 -22 97 0
-110 22 97 0
-110 -22 -97 0
109 28 -105 0
109 -28 105 0
-109 28 105 0
-109 -28 -105 0
-111 110 0
-111 105 0
-111 -112 0
111 112 -110 -105 0
112 110 -105 0
-112 110 105 0
-113 110 0
112 -113 -105 0
-112 -113 105 0
112 113 -110 105 0
-112 113 -110 -105 0
-114 110 0
112 -114 105 0
-112 -114 -105 0
112 114 -110 -105 0
-112 114 -110 105 0
-115 116 0
-115 112 0
-115 -110 0
115 -116 110 -112 0
116 -110 112 0
-116 110 112 0
-117 112 0
116 -117 -110 0
-116 -117 110 0
116 117 110 -112 0
-116 117 -110 -112 0
-118 112 0
116 -118 110 0
-116 -118 -110 0
116 118 -110 -112 0
-116 118 110 -112 0
-119 116 0
-119 112 0
-119 -120 0
119 120 -116 -112 0
120 116 -112 0
-120 116 112 0
-121 116 0
120 -121 -112 0
-120 -121 112 0
120 121 -116 112 0
-120 121 -116 -112 0
-122 116 0
120 -122 112 0
-120 -122 -112 0
120 122 -116 -112 0
-120 122 -116 112 0
-123 124 0
-123 120 0
-123 -116 0
123 -124 116 -120 0
124 -116 120 0
-124 116 120 0
-125 120 0
124 -125 -116 0
-124 -125 116 0
124 125 116 -120 0
-124 125 -116 -120 0
-126 120 0
124 -126 116 0
-124 -126 -116 0
124 126 -116 -120 0
-124 126 116 -120 0
-127 124 0
-127 120 0
-127 -128 0
127 128 -124 -120 0
128 124 -120 0
-128 124 120 0
-129 124 0
128 -129 -120 0
-128 -129 120 0
128 129 -124 120 0
-128 129 -124 -120 0
-130 124 0
128 -130 120 0
-128 -130 -120 0
128 130 -124 -120 0
-128 130 -124 120 0
-131 22 0
-131 128 0
-131 124 -109 0
-131 -124 109 0
131 -22 124 109 -128 0
131 -22 -124 -109 -128 0
133 22 -124 0
133 -22 124 0
-133 22 124 0
-133 -22 -124 0
132 109 -128 0
132 -109 128 0
-132 109 128 0
-132 -109 -128 0
-134 22 0
-134 132 0
134 -22 -132 0
135 22 -132 0
135 -22 132 0
-135 22 132 0
-135 -22 -132 0
-136 137 0
-136 135 0
-136 -22 0
136 -137 22 -135 0
137 -22 135 0
-137 22 135 0
-138 135 0
137 -138 -22 0
-137 -138 22 0
137 138 22 -135 0
-137 138 -22 -135 0
-139 135 0
137 -139 22 0
-137 -139 -22 0
137 139 -22 -135 0
-137 139 22 -135 0
-140 137 0
-140 135 0
140 -137 -135 0
141 137 -135 0
141 -137 135 0
-141 137 135 0
-141 -137 -135 0
-142 10 0
-142 141 0
-142 137 -82 0
-142 -137 82 0
142 -10 137 82 -141 0
142 -10 -137 -82 -141 0
144 10 -137 0
144 -10 137 0
-144 10 137 0
-144 -10 -137 0
143 82 -141 0
143 -82 141 0
-143 82 141 0
-143 -82 -141 0
-145 144 0
-145 141 0
-145 -146 0
145 146 -144 -141 0
146 144 -141 0
-146 144 141 0
147 -144 0
-147 144 0
-148 10 0
-148 146 0
-148 144 -143 0
-148 -144 143 0
148 -10 144 143 -146 0
148 -10 -144 -143 -146 0
150 10 -144 0
150 -10 144 0
-150 10 144 0
-150 -10 -144 0
149 143 -146 0
149 -143 146 0
-149 143 146 0
-149 -143 -146 0
-151 10 0
-151 149 0
151 -10 -149 0
152 10 -149 0
152 -10 149 0
-152 10 149 0
-152 -10 -149 0
-153 154 0
-153 152 0
-153 -10 0
153 -154 10 -152 0
154 -10 152 0
-154 10 152 0
-155 152 0
154 -155 -10 0
-154 -155 10 0
154 155 10 -152 0
-154 155 -10 -152 0
-156 152 0
154 -156 10 0
-154 -156 -10 0
154 156 -10 -152 0
-154 156 10 -152 0
-157 154 0
-157 152 0
157 -154 -152 0
158 154 -152 0
158 -154 152 0
-158 154 152 0
-158 -154 -152 0
-159 160 0
-159 150 0
-159 -146 0
159 -160 -150 146 0
160 150 -146 0
-160 150 146 0
161 -150 0
-161 150 0
-162 133 0
-162 128 0
-162 -163 0
162 163 -133 -128 0
163 133 -128 0
-163 133 128 0
-164 133 0
163 -164 -128 0
-163 -164 128 0
163 164 -133 128 0
-163 164 -133 -128 0
-165 133 0
163 -165 128 0
-163 -165 -128 0
163 165 -133 -128 0
-163 165 -133 128 0
-166 167 0
-166 163 0
-166 -133 0
166 -167 133 -163 0
167 -133 163 0
-167 133 163 0
-168 163 0
167 -168 -133 0
-167 -168 133 0
167 168 133 -163 0
-167 168 -133 -163 0
-169 163 0
167 -169 133 0
-167 -169 -133 0
167 169 -133 -163 0
-167 169 133 -163 0
-170 167 0
-170 163 0
-170 -171 0
170 171 -167 -163 0
171 167 -163 0
-171 167 163 0
-172 167 0
171 -172 -163 0
-171 -172 163 0
171 172 -167 163 0
-171 172 -167 -163 0
-173 167 0
171 -173 163 0
-171 -173 -163 0
171 173 -167 -163 0
-171 173 -167 163 0
-174 175 0
-174 171 0
-174 -167 0
174 -175 167 -171 0
175 -167 171 0
-175 167 171 0
-176 171 0
175 -176 -167 0
-175 -176 167 0
175 176 167 -171 0
-175 176 -167 -171 0
-177 171 0
175 -177 167 0
-175 -177 -167 0
175 177 -167 -171 0
-175 177 167 -171 0
-178 175 0
-178 171 0
-178 -179 0
178 179 -175 -171 0
179 175 -171 0
-179 175 171 0
-180 175 0
179 -180 -171 0
-179 -180 171 0
179 180 -175 171 0
-179 180 -175 -171 0
-181 175 0
179 -181 171 0
-179 -181 -171 0
179 181 -175 -171 0
-179 181 -175 171 0
-154 0
-150 0
-160 0
-175 0
-179 0
